ALGO = Fast
AMIX = 0.01
AMIX_MAG = 0.1
BMIX = 0.0001
BMIX_MAG = 0.0001
EDIFF = 1e-05
EDIFFG = -0.01
ENCUT = 400
GGA = Pe
IBRION = 2
ISIF = 2
ISMEAR = 1
ISPIN = 2
ISTART = 0
KPAR = 2
LORBIT = 10
LPLANE = False
LREAL = Auto
MAGMOM = 24*3.0 1*1.0 47*3.0
NCORE = 4
NELM = 120
NSIM = 1
NSW = 60
PREC = Accurate
SIGMA = 0.2
SYSTEM = Gb-mn-24-d-5.1
