Fe75 S1                                 
   1.0000000000000000     
     5.6636980000000001    0.0000000000000000    0.0000000000000000
     0.0000000000000000    6.3322070000000004    0.0000000000000000
     0.0000000000000000    0.0000000000000000   39.3288269999999969
   Fe   S    Fe
    33     1    42
Direct
  0.9999932906027098  0.4268022191946628  0.1991536640541014
  0.4999913484087628  0.4269806719837206  0.1992057886699783
  0.2498862050907391  0.1192080423144759  0.2122613522137371
  0.7501000229885122  0.1192080423144759  0.2122613522137371
  0.9999915249718470  0.8126724221112767  0.2273174839412349
  0.4999931140396257  0.8128745633236534  0.2272979054269797
  0.2500715963315869  0.5138745464259173  0.2458016355280535
  0.7499111004859387  0.5138729671976918  0.2458018897944783
  0.9999932906027098  0.2105932418191614  0.2610949978243724
  0.4999931140396257  0.2107764322928816  0.2611664466880725
  0.2500945495328324  0.9104724466524843  0.2769693588878184
  0.7498881472846861  0.9104724466524843  0.2769696131542361
  0.9999932906027098  0.6121341263796367  0.2939912242996741
  0.4999931140396257  0.6121657109440690  0.2940377550543261
  0.2503152533909798  0.3116496349534970  0.3101328193693647
  0.7496709746882715  0.3116512141817225  0.3101325651029470
  0.4999931140396257  0.0130523212522888  0.3261083784675307
  0.9999950562335798  0.0134376529383857  0.3261444842990073
  0.2504688632762537  0.7110411899042433  0.3416188842855661
  0.7495191304338604  0.7110411899042433  0.3416186300191484
  0.9999932906027098  0.4119195724334332  0.3587925467494841
  0.4999948796704885  0.4112515588956569  0.3592377672489420
  0.2506224731615276  0.1156421449898914  0.3753229151736477
  0.7493655205485865  0.1156437242181099  0.3753231694400654
  0.9999950562335798  0.8141174159341276  0.3884740828909017
  0.4999966453013585  0.8088475313583388  0.3893851194697433
  0.2478627921192142  0.5087878523238416  0.4071987705099858
  0.7521269672217699  0.5087862730956232  0.4071985162435681
  0.4999948796704885  0.2105553403418412  0.4271030000462517
  0.9999950562335798  0.2106911539689094  0.4264899637103312
  0.2518743054449573  0.9025415625231474  0.4363366850478414
  0.7481136882651569  0.9025415625231474  0.4363369393142591
  0.4999966453013585  0.5896001188842988  0.4556543219557483
  0.9999950562335798  0.6249306126600089  0.4493836035333558
  0.4999913484087628  0.9395807812347243  0.4839498518478536
  0.9999915249718470  0.9580245876358759  0.4834494555355064
  0.2556403960804374  0.2740703201900985  0.4883374731720309
  0.7443370038444854  0.2740671617336545  0.4883372189056132
  0.4999895827778928  0.5785471005606766  0.5145246259187957
  0.9999862280792513  0.5799731436448639  0.5082317863179568
  0.2484242627343463  0.8818015582876555  0.5307958968621165
  0.7515531371905766  0.8818015582876555  0.5307958968621165
  0.4999842858852972  0.1890320389083939  0.5423945138256983
  0.9999879937101142  0.1906570647485140  0.5420156568615653
  0.2452673147473590  0.4863864999991279  0.5602002826069565
  0.7547047882849682  0.4863817623144655  0.5602002826069565
  0.9999879937101142  0.7881138440357347  0.5775949025888849
  0.4999878171470300  0.7877174577520947  0.5777497508379810
  0.2494907037769281  0.0924717085212166  0.5922706517537364
  0.7504849305171319  0.0924685500647726  0.5922703974873187
  0.4999895827778928  0.3909568970186825  0.6086009125062404
  0.9999879937101142  0.3910184869193287  0.6086802436289318
  0.2498244080104541  0.6909913084016353  0.6254755576615594
  0.7501565231762015  0.6909913084016353  0.6254755576615594
  0.4999878171470300  0.9927376031768986  0.6409776726877752
  0.9999897593409841  0.9929160559659564  0.6408853739777172
  0.2498897363524648  0.2931284463694865  0.6569628939098564
  0.7500894292033209  0.2931284463694865  0.6569631481762741
  0.9999915249718470  0.5933649989648160  0.6735934433030479
  0.4999913484087628  0.5931375901008948  0.6735728477231220
  0.2499621272179411  0.8942348220770384  0.6892791386836947
  0.7500170383378517  0.8942348220770384  0.6892793929501124
  0.4999931140396257  0.1955400384099875  0.7049900064398074
  0.9999915249718470  0.1955005577044489  0.7049938204360870
  0.2499621272179411  0.4933998525316667  0.7224047134688263
  0.7500205695995774  0.4933982733034483  0.7224049677352440
  0.9999932906027098  0.7944654999433851  0.7381313457429073
  0.4999931140396257  0.7944702376280475  0.7381374481369605
  0.2499638928488039  0.0980179580357969  0.7533319007963328
  0.7500241008613102  0.0980179580357969  0.7533321550627505
  0.4999931140396257  0.3970037618795459  0.7719330149358399
  0.9999950562335798  0.3970795648341863  0.7719538647821835
  0.2500309868216846  0.7037419970635810  0.7870354231515719
  0.7499517099958339  0.7037419970635810  0.7870354231515719
  0.4999913484087628  0.0117573541105003  0.8000599661922294
  0.9999915249718470  0.0116183820269953  0.8000703911154048

  0.00000000E+00  0.00000000E+00  0.00000000E+00
  0.00000000E+00  0.00000000E+00  0.00000000E+00
  0.00000000E+00  0.00000000E+00  0.00000000E+00
  0.00000000E+00  0.00000000E+00  0.00000000E+00
  0.00000000E+00  0.00000000E+00  0.00000000E+00
  0.00000000E+00  0.00000000E+00  0.00000000E+00
  0.00000000E+00  0.00000000E+00  0.00000000E+00
  0.00000000E+00  0.00000000E+00  0.00000000E+00
  0.00000000E+00  0.00000000E+00  0.00000000E+00
  0.00000000E+00  0.00000000E+00  0.00000000E+00
  0.00000000E+00  0.00000000E+00  0.00000000E+00
  0.00000000E+00  0.00000000E+00  0.00000000E+00
  0.00000000E+00  0.00000000E+00  0.00000000E+00
  0.00000000E+00  0.00000000E+00  0.00000000E+00
  0.00000000E+00  0.00000000E+00  0.00000000E+00
  0.00000000E+00  0.00000000E+00  0.00000000E+00
  0.00000000E+00  0.00000000E+00  0.00000000E+00
  0.00000000E+00  0.00000000E+00  0.00000000E+00
  0.00000000E+00  0.00000000E+00  0.00000000E+00
  0.00000000E+00  0.00000000E+00  0.00000000E+00
  0.00000000E+00  0.00000000E+00  0.00000000E+00
  0.00000000E+00  0.00000000E+00  0.00000000E+00
  0.00000000E+00  0.00000000E+00  0.00000000E+00
  0.00000000E+00  0.00000000E+00  0.00000000E+00
  0.00000000E+00  0.00000000E+00  0.00000000E+00
  0.00000000E+00  0.00000000E+00  0.00000000E+00
  0.00000000E+00  0.00000000E+00  0.00000000E+00
  0.00000000E+00  0.00000000E+00  0.00000000E+00
  0.00000000E+00  0.00000000E+00  0.00000000E+00
  0.00000000E+00  0.00000000E+00  0.00000000E+00
  0.00000000E+00  0.00000000E+00  0.00000000E+00
  0.00000000E+00  0.00000000E+00  0.00000000E+00
  0.00000000E+00  0.00000000E+00  0.00000000E+00
  0.00000000E+00  0.00000000E+00  0.00000000E+00
  0.00000000E+00  0.00000000E+00  0.00000000E+00
  0.00000000E+00  0.00000000E+00  0.00000000E+00
  0.00000000E+00  0.00000000E+00  0.00000000E+00
  0.00000000E+00  0.00000000E+00  0.00000000E+00
  0.00000000E+00  0.00000000E+00  0.00000000E+00
  0.00000000E+00  0.00000000E+00  0.00000000E+00
  0.00000000E+00  0.00000000E+00  0.00000000E+00
  0.00000000E+00  0.00000000E+00  0.00000000E+00
  0.00000000E+00  0.00000000E+00  0.00000000E+00
  0.00000000E+00  0.00000000E+00  0.00000000E+00
  0.00000000E+00  0.00000000E+00  0.00000000E+00
  0.00000000E+00  0.00000000E+00  0.00000000E+00
  0.00000000E+00  0.00000000E+00  0.00000000E+00
  0.00000000E+00  0.00000000E+00  0.00000000E+00
  0.00000000E+00  0.00000000E+00  0.00000000E+00
  0.00000000E+00  0.00000000E+00  0.00000000E+00
  0.00000000E+00  0.00000000E+00  0.00000000E+00
  0.00000000E+00  0.00000000E+00  0.00000000E+00
  0.00000000E+00  0.00000000E+00  0.00000000E+00
  0.00000000E+00  0.00000000E+00  0.00000000E+00
  0.00000000E+00  0.00000000E+00  0.00000000E+00
  0.00000000E+00  0.00000000E+00  0.00000000E+00
  0.00000000E+00  0.00000000E+00  0.00000000E+00
  0.00000000E+00  0.00000000E+00  0.00000000E+00
  0.00000000E+00  0.00000000E+00  0.00000000E+00
  0.00000000E+00  0.00000000E+00  0.00000000E+00
  0.00000000E+00  0.00000000E+00  0.00000000E+00
  0.00000000E+00  0.00000000E+00  0.00000000E+00
  0.00000000E+00  0.00000000E+00  0.00000000E+00
  0.00000000E+00  0.00000000E+00  0.00000000E+00
  0.00000000E+00  0.00000000E+00  0.00000000E+00
  0.00000000E+00  0.00000000E+00  0.00000000E+00
  0.00000000E+00  0.00000000E+00  0.00000000E+00
  0.00000000E+00  0.00000000E+00  0.00000000E+00
  0.00000000E+00  0.00000000E+00  0.00000000E+00
  0.00000000E+00  0.00000000E+00  0.00000000E+00
  0.00000000E+00  0.00000000E+00  0.00000000E+00
  0.00000000E+00  0.00000000E+00  0.00000000E+00
  0.00000000E+00  0.00000000E+00  0.00000000E+00
  0.00000000E+00  0.00000000E+00  0.00000000E+00
  0.00000000E+00  0.00000000E+00  0.00000000E+00
  0.00000000E+00  0.00000000E+00  0.00000000E+00
