ALGO = Fast
AMIX = 0.01
AMIX_MAG = 0.1
BMIX = 0.0001
BMIX_MAG = 0.0001
EDIFF = 1e-05
EDIFFG = -0.01
ENCUT = 400
GGA = Pe
IBRION = 2
ISIF = 2
ISMEAR = 1
ISPIN = 2
ISTART = 0
KPAR = 2
LAECHG = True
LCHARGE = True
LORBIT = 10
LPLANE = False
LREAL = Auto
MAGMOM = 1*2.85 1*2.848 2*2.647 1*2.624 1*2.622 2*2.249 1*2.361 1*2.344 2*2.342 1*2.207 1*2.211 2*2.259 1*2.263 1*2.274 2*2.196 1*2.274 1*2.24 2*2.313 1*2.223 1*2.294 2*2.077 1*2.557 1*2.616 2*1.925 1*2.603 1*-0.002 1*2.189 1*2.195 2*2.726 1*2.26 1*2.454 2*2.146 1*2.392 1*2.371 2*2.225 1*2.158 1*2.204 2*2.245 1*2.216 1*2.147 2*2.168 1*2.193 1*2.174 2*2.161 1*2.207 1*2.22 2*2.198 1*2.224 1*2.216 2*2.325 1*2.346 1*2.348 2*2.265 1*2.624 1*2.625 2*2.65 1*2.857 1*2.859
NCORE = 4
NELM = 300
NSIM = 1
NSW = 0
PREC = Accurate
SIGMA = 0.2
SYSTEM = S5-ra001-s210-s-33
